Geographic Exponential Decay
20 243 131 66 235 101 292 197 105 53 155 120 109 301 22 240 74 213 290 224 135
p edge 320 321
e 0 281 6.0
e 1 312 1.0
e 1 0 4.0
e 2 172 1.0
e 2 1 2.0
e 3 69 23.0
e 3 84 18.0
e 3 2 24.0
e 4 252 4.0
e 4 3 5.0
e 5 276 3.0
e 5 4 1.0
e 6 184 5.0
e 6 5 3.0
e 7 150 1.0
e 7 6 1.0
e 8 197 74.0
e 8 7 5.0
e 9 314 5.0
e 9 8 2.0
e 10 129 2.0
e 10 9 2.0
e 11 12 23.0
e 11 100 7.0
e 11 10 2.0
e 13 56 3.0
e 13 11 19.0
e 14 81 7.0
e 14 13 6.0
e 15 285 2.0
e 15 14 2.0
e 16 264 5.0
e 16 15 4.0
e 17 18 1.0
e 17 16 4.0
e 19 80 3.0
e 19 17 5.0
e 20 101 1.0
e 20 19 1.0
e 21 151 1.0
e 21 20 4.0
e 22 107 70.0
e 22 317 54.0
e 22 284 45.0
e 22 263 18.0
e 22 105 41.0
e 23 101 31.0
e 24 152 1.0
e 24 21 1.0
e 25 176 1.0
e 25 24 3.0
e 26 46 8.0
e 26 48 20.0
e 26 25 25.0
e 27 299 5.0
e 27 26 7.0
e 28 185 4.0
e 28 27 1.0
e 29 209 1.0
e 29 28 1.0
e 30 231 1.0
e 30 29 2.0
e 31 76 4.0
e 31 30 2.0
e 32 58 1.0
e 32 31 1.0
e 33 91 2.0
e 33 32 1.0
e 34 142 1.0
e 34 33 2.0
e 35 158 1.0
e 35 34 1.0
e 36 165 1.0
e 36 35 1.0
e 37 52 13.0
e 37 36 2.0
e 38 89 1.0
e 38 37 1.0
e 39 143 6.0
e 39 38 2.0
e 40 244 3.0
e 40 39 5.0
e 41 86 4.0
e 41 40 1.0
e 42 73 19.0
e 42 167 18.0
e 42 41 17.0
e 43 104 4.0
e 43 42 15.0
e 44 101 91.0
e 45 145 1.0
e 45 43 1.0
e 47 74 56.0
e 47 45 5.0
e 49 175 2.0
e 49 47 6.0
e 50 261 5.0
e 50 49 1.0
e 51 318 2.0
e 51 50 2.0
e 52 53 78.0
e 53 54 20.0
e 53 262 94.0
e 53 245 58.0
e 53 194 64.0
e 55 116 1.0
e 55 51 1.0
e 57 90 1.0
e 57 55 2.0
e 59 71 4.0
e 59 57 2.0
e 60 61 2.0
e 60 59 3.0
e 62 203 5.0
e 62 60 3.0
e 63 64 16.0
e 63 62 3.0
e 64 65 9.0
e 66 296 22.0
e 66 67 93.0
e 66 195 54.0
e 66 68 16.0
e 66 174 62.0
e 66 63 44.0
e 70 177 1.0
e 70 66 51.0
e 72 319 1.0
e 72 70 3.0
e 74 75 49.0
e 74 77 97.0
e 74 78 66.0
e 74 102 28.0
e 79 210 40.0
e 79 87 19.0
e 79 72 8.0
e 82 83 11.0
e 82 79 23.0
e 85 258 1.0
e 85 82 1.0
e 88 92 10.0
e 88 85 5.0
e 93 313 4.0
e 93 88 1.0
e 94 253 1.0
e 94 93 2.0
e 95 96 2.0
e 95 94 3.0
e 97 265 9.0
e 97 95 3.0
e 98 250 1.0
e 98 97 2.0
e 99 217 2.0
e 99 98 4.0
e 101 103 87.0
e 101 105 98.0
e 105 106 13.0
e 105 303 74.0
e 105 282 52.0
e 107 108 29.0
e 107 109 65.0
e 109 183 2.0
e 109 199 27.0
e 109 247 51.0
e 109 125 90.0
e 110 308 1.0
e 110 99 1.0
e 111 254 24.0
e 111 110 4.0
e 112 248 1.0
e 112 111 1.0
e 113 208 1.0
e 113 112 3.0
e 114 115 4.0
e 114 113 4.0
e 117 290 39.0
e 117 114 1.0
e 118 119 1.0
e 118 117 2.0
e 120 121 41.0
e 120 122 23.0
e 120 315 46.0
e 120 164 99.0
e 120 123 16.0
e 120 118 97.0
e 124 266 2.0
e 124 120 95.0
e 126 127 7.0
e 126 124 2.0
e 128 230 8.0
e 128 126 4.0
e 130 131 3.0
e 130 128 1.0
e 131 132 81.0
e 131 133 86.0
e 131 316 32.0
e 131 241 67.0
e 134 159 2.0
e 134 130 5.0
e 135 136 27.0
e 135 228 23.0
e 135 277 80.0
e 135 137 77.0
e 135 196 61.0
e 135 134 33.0
e 138 139 1.0
e 138 135 60.0
e 140 141 1.0
e 140 138 2.0
e 144 146 5.0
e 144 140 1.0
e 147 197 43.0
e 148 240 12.0
e 149 153 1.0
e 149 144 6.0
e 154 155 81.0
e 154 293 2.0
e 155 204 80.0
e 155 156 8.0
e 155 224 54.0
e 155 232 41.0
e 157 160 2.0
e 157 149 1.0
e 161 259 3.0
e 161 157 3.0
e 162 163 3.0
e 162 161 5.0
e 166 168 1.0
e 166 162 1.0
e 169 170 22.0
e 169 171 24.0
e 169 166 18.0
e 173 178 4.0
e 173 169 15.0
e 179 183 19.0
e 180 300 6.0
e 180 173 1.0
e 181 249 3.0
e 181 180 1.0
e 182 283 1.0
e 182 181 2.0
e 186 187 1.0
e 186 182 5.0
e 188 189 2.0
e 188 186 3.0
e 190 205 7.0
e 190 188 2.0
e 191 270 1.0
e 191 190 2.0
e 192 193 1.0
e 192 191 1.0
e 197 198 6.0
e 197 200 77.0
e 197 201 63.0
e 198 202 12.0
e 206 207 1.0
e 206 192 1.0
e 210 286 27.0
e 210 211 49.0
e 212 213 48.0
e 213 214 62.0
e 213 215 6.0
e 213 216 14.0
e 213 217 56.0
e 216 218 13.0
e 216 251 28.0
e 219 220 3.0
e 219 206 2.0
e 221 222 3.0
e 221 219 2.0
e 223 301 71.0
e 224 225 4.0
e 224 226 62.0
e 224 227 15.0
e 224 228 44.0
e 226 229 16.0
e 233 256 1.0
e 233 221 1.0
e 234 275 4.0
e 234 233 11.0
e 235 236 5.0
e 235 237 45.0
e 235 269 45.0
e 235 238 58.0
e 235 239 8.0
e 236 238 21.0
e 239 240 97.0
e 239 242 45.0
e 240 267 86.0
e 240 243 59.0
e 240 298 53.0
e 243 246 90.0
e 243 254 33.0
e 243 271 76.0
e 243 255 89.0
e 257 274 5.0
e 257 234 5.0
e 260 278 5.0
e 260 257 2.0
e 268 272 10.0
e 268 260 8.0
e 273 279 3.0
e 273 268 2.0
e 280 287 1.0
e 280 273 1.0
e 288 289 4.0
e 288 280 5.0
e 290 291 26.0
e 290 292 64.0
e 290 294 58.0
e 290 295 28.0
e 291 292 88.0
e 291 309 19.0
e 292 310 60.0
e 292 297 59.0
e 292 301 73.0
e 301 302 91.0
e 301 304 24.0
e 301 305 27.0
e 306 307 1.0
e 306 288 1.0
e 310 311 13.0
